num_personas = 10;
num_opiniones = 5;
distribucion_inicial = [2,1,3,2,2];
valores_extremismo = [0.026,0.947,0.838,0.891,0.037];
costos_extra = [12.848,6.085,5.479,14.536,9.914];
matriz_costos = [
  [0,4.873,2.57,3.714,0.458],
  [3.747,0,4.653,3.229,3.352],
  [1.127,0.537,0,3.376,2.36],
  [0.53,4.584,2.014,0,1.675],
  [0.713,2.393,0.907,4.152,0]
];
costo_maximo = 128.25;
movimientos_maximos = 1;